<?xml version = "1.0" encoding="UTF-8" standalone="yes"?>
<CPLEXSolution version="1.2">
 <header
   problemName="inst_10_cut_n1"
   objectiveValue="137.35714285714286"
   solutionTypeValue="1"
   solutionTypeString="basic"
   solutionStatusValue="1"
   solutionStatusString="optimal"
   solutionMethodString="primal"
   primalFeasible="1"
   dualFeasible="1"
   simplexIterations="0"
   writeLevel="1"/>
 <quality
   epRHS="9.9999999999999995e-07"
   epOpt="9.9999999999999995e-07"
   maxPrimalInfeas="0"
   maxDualInfeas="0"
   maxPrimalResidual="5.6843418860808015e-14"
   maxDualResidual="1.4210854715202004e-14"
   maxX="1"
   maxPi="5.9285714285714279"
   maxSlack="887.21428571428578"
   maxRedCost="473.14285714285711"
   kappa="832.18569398389388"/>
 <linearConstraints>
  <constraint name="c0" index="0" status="BS" slack="228.35714285714286" dual="-0"/>
  <constraint name="c1" index="1" status="BS" slack="700.85714285714289" dual="-0"/>
  <constraint name="c2" index="2" status="LL" slack="0" dual="5.9285714285714279"/>
  <constraint name="c3" index="3" status="BS" slack="584.07142857142856" dual="-0"/>
  <constraint name="c4" index="4" status="BS" slack="887.21428571428578" dual="-0"/>
  <constraint name="cut_1" index="5" status="BS" slack="0.64285714285715478" dual="-0"/>
 </linearConstraints>
 <variables>
  <variable name="x0" index="0" status="LL" value="0" reducedCost="-86.642857142857125"/>
  <variable name="x1" index="1" status="BS" value="0.64285714285714279" reducedCost="0"/>
  <variable name="x2" index="2" status="LL" value="0" reducedCost="-212.64285714285711"/>
  <variable name="x3" index="3" status="LL" value="0" reducedCost="-264.42857142857139"/>
  <variable name="x4" index="4" status="LL" value="0" reducedCost="-31.571428571428569"/>
  <variable name="x5" index="5" status="LL" value="0" reducedCost="-473.14285714285711"/>
  <variable name="x6" index="6" status="LL" value="0" reducedCost="-225.64285714285711"/>
  <variable name="x7" index="7" status="LL" value="0" reducedCost="-329.14285714285711"/>
  <variable name="x8" index="8" status="LL" value="0" reducedCost="-234.35714285714283"/>
  <variable name="x9" index="9" status="LL" value="0" reducedCost="-66.214285714285694"/>
  <variable name="x10" index="10" status="UL" value="1" reducedCost="78.071428571428569"/>
  <variable name="x11" index="11" status="LL" value="0" reducedCost="-260.78571428571422"/>
  <variable name="s0" index="12" status="LL" value="0" reducedCost="0"/>
  <variable name="s1" index="13" status="LL" value="0" reducedCost="0"/>
  <variable name="s2" index="14" status="LL" value="0" reducedCost="-5.9285714285714279"/>
  <variable name="s3" index="15" status="LL" value="0" reducedCost="0"/>
  <variable name="s4" index="16" status="LL" value="0" reducedCost="0"/>
 </variables>
 <objectiveValues>
  <objective index="0" name="" value="137.35714285714286"/>
 </objectiveValues>
</CPLEXSolution>
